p edge 260 259 107
e 1 204
e 2 19
e 2 50
e 3 12
e 4 238
e 4 148
e 5 76
e 6 232
e 7 29
e 7 161
e 7 67
e 7 228
e 7 37
e 8 157
e 8 188
e 9 154
e 9 155
e 9 53
e 9 32
e 10 209
e 10 225
e 11 244
e 11 217
e 12 220
e 13 25
e 13 96
e 14 17
e 15 19
e 16 146
e 16 256
e 16 100
e 17 253
e 17 184
e 18 55
e 18 158
e 20 151
e 21 94
e 22 186
e 23 48
e 23 108
e 24 156
e 24 150
e 25 103
e 26 163
e 26 240
e 26 208
e 27 233
e 27 133
e 28 229
e 30 160
e 30 206
e 30 180
e 31 165
e 31 40
e 31 52
e 32 71
e 32 62
e 33 188
e 33 95
e 34 35
e 34 159
e 35 73
e 36 131
e 36 82
e 37 55
e 38 120
e 38 206
e 39 249
e 40 104
e 41 219
e 41 203
e 42 92
e 42 234
e 42 180
e 43 217
e 43 129
e 44 199
e 44 242
e 45 162
e 45 94
e 46 232
e 46 69
e 46 145
e 47 109
e 49 116
e 50 246
e 51 194
e 51 108
e 52 73
e 53 247
e 54 245
e 54 150
e 56 58
e 57 83
e 58 192
e 58 232
e 59 222
e 59 183
e 60 126
e 60 95
e 61 76
e 61 181
e 62 164
e 62 98
e 62 174
e 62 114
e 63 116
e 63 129
e 63 174
e 64 112
e 65 175
e 66 110
e 66 98
e 67 112
e 68 114
e 69 182
e 69 78
e 70 137
e 70 220
e 72 178
e 74 208
e 75 113
e 75 148
e 76 171
e 77 240
e 78 87
e 79 85
e 79 130
e 80 85
e 81 138
e 81 223
e 81 173
e 81 251
e 81 184
e 82 153
e 82 140
e 83 172
e 84 204
e 86 247
e 87 147
e 88 144
e 88 178
e 89 134
e 89 108
e 89 90
e 90 174
e 91 233
e 93 242
e 93 188
e 94 204
e 94 254
e 95 148
e 95 159
e 95 234
e 96 127
e 96 101
e 97 199
e 98 111
e 98 117
e 98 249
e 99 193
e 99 211
e 99 238
e 100 139
e 100 230
e 101 199
e 102 175
e 104 197
e 104 201
e 104 250
e 105 145
e 106 254
e 107 114
e 108 218
e 108 184
e 109 178
e 109 170
e 112 130
e 114 136
e 114 259
e 115 214
e 115 198
e 115 138
e 117 187
e 118 190
e 119 181
e 120 239
e 121 232
e 122 203
e 123 153
e 124 141
e 124 190
e 124 196
e 124 213
e 124 192
e 125 257
e 128 195
e 128 188
e 130 172
e 130 189
e 132 257
e 133 210
e 134 216
e 135 169
e 136 158
e 137 149
e 137 241
e 137 151
e 139 183
e 139 180
e 140 201
e 142 207
e 142 208
e 142 188
e 143 236
e 144 220
e 145 260
e 147 170
e 148 236
e 150 158
e 151 259
e 152 221
e 155 186
e 166 199
e 167 185
e 168 191
e 168 245
e 169 210
e 171 221
e 173 210
e 174 255
e 175 224
e 176 235
e 177 243
e 179 229
e 181 241
e 185 250
e 191 246
e 198 215
e 199 212
e 199 257
e 200 215
e 202 251
e 203 241
e 205 230
e 207 227
e 220 248
e 224 252
e 225 235
e 225 236
e 226 239
e 229 259
e 230 245
e 231 232
e 237 257
e 242 254
e 243 257
e 247 252
e 256 258
